NAME: cluster_14
TYPE: TSP
DIMENSION: 11
EDGE_WEIGHT_TYPE: EUC_2D
NODE_COORD_SECTION
1 12000.00 16000.00
2 4560.11 17629.32
3 286.88 21449.32
4 2177.19 13723.04
5 5282.98 22266.64
6 4881.07 15237.36
7 7849.14 22065.53
8 2627.01 16069.03
9 2062.62 19740.65
10 5346.59 16932.57
11 3122.65 16128.11
EOF
